Route #1: 2 30 48 29 45
Route #2: 4 27 19 8 46 34
Route #3: 26 12 40 32 44 3
Route #4: 9 50 18 55 25 31 39
Route #5: 58 10 38 11 53
Route #6: 7 35 14 59 54 13 52
Route #7: 57 15 5 37 20 60 36 47
Route #8: 21 61 28 62 22 1
Route #9: 43 42 64 41 56 23 63
Route #10: 6 33 16 49 24 51 17
Cost 842